1	3	1	1	4	5	0	0	0	0	0	0
800	1	0	0	0	0	0	0	0	0	0	0
100	1	0	77.75	0.39	1	0	0	0	0	0	0
100	1	0	77.75	0.39	1	0	0	0	0	0	0
100     1       0       77.75   0.39    1       0       0       0       0       0       0
50	150	0	0	0	0	9999	0	0	99999	0	0
50	75	0	0	0	0	9999	0	0	99999	0	0
50	75	0	0	0	0	9999	0	0	0	0	0
57	82	0	0	0	0	9999	0	0	0	0	0
14	59	0	0	0	0	9999	0	0	0	0	0
39	26	0	0	0	0	9999	0	0	0	0	0
8	40	40	8	32	177	227	10	0	0	0	0
40	15	40	15	25	197	247	10	0	0	0	0
30	60	16	8	8	116	217	10	0	0	0	0
27	43	9	6	3	212	248	10	0	0	0	0
65	85	40	31	9	160	215	10	0	0	0	0

